\ File written by Highs .lp filereader
minimize
 obj: +1 x1 +16 x2 +36 x3 +16 x4 +1 x5 +1 x6 +4 x7 +24 x8 +24 x9 +4 x10 +4 x11 +1 x12 +24 x13 +16 x14 +24 x15 +36 x16 +4 x17 +16 x18 +0 x19 +0 x20 +0 x21 +0 x22 +0 x23 +0 x24 
st
 con1: +4 x1 +48 x2 +72 x3 +16 x4 +12 x7 +48 x8 +24 x9 = +4
 con2: +16 x2 +72 x3 +48 x4 +4 x5 +24 x8 +48 x9 +12 x10 = +4
 con3: +36 x3 +48 x4 +6 x5 +6 x6 +24 x9 +12 x10 +24 x13 +72 x15 +36 x16 +24 x17 +48 x18 = +6
 con4: +4 x7 +24 x8 +24 x9 +4 x10 = +1
 con5: +6 x1 +48 x2 +36 x3 +12 x7 +24 x8 +24 x11 +6 x12 +72 x13 +48 x14 +24 x15 +36 x16 = +6
 con6: +48 x2 +144 x3 +48 x4 +48 x8 +48 x9 +16 x11 +144 x13 +48 x14 +144 x15 +144 x16 +16 x17 +48 x18 = +16
 con7: +12 x7 +48 x8 +24 x9 +4 x12 +48 x14 +72 x16 +16 x18 = +4
 con8: +4 x6 +24 x8 +48 x9 +12 x10 +16 x14 +72 x16 +48 x18 = +4
 con9: +1 x3 -1 x8 -1 x19 = +0
 con10: +1 x3 -1 x13 -1 x20 = +0
 con11: +1 x3 -1 x14 -1 x21 = +0
 con12: +1 x4 -1 x9 -1 x22 = +0
 con13: +1 x4 -1 x15 -1 x23 = +0
 con14: +1 x4 -1 x16 -1 x24 = +0
bounds
 +0 <= x1 <= +1
 +0 <= x2 <= +0
 +0 <= x3 <= +1
 +0 <= x4 <= +1
 +0 <= x5 <= +0
 +0 <= x6 <= +0
 +0 <= x7 <= +0
 +0 <= x8 <= +1
 +0 <= x9 <= +1
 +0 <= x10 <= +0
 +0 <= x11 <= +0
 +0 <= x12 <= +0
 +0 <= x13 <= +1
 +0 <= x14 <= +1
 +0 <= x15 <= +1
 +0 <= x16 <= +1
 +0 <= x17 <= +0
 +0 <= x18 <= +0
 +0 <= x19 <= +0
 +0 <= x20 <= +0
 +0 <= x21 <= +0
 +0 <= x22 <= +0
 +0 <= x23 <= +0
 +0 <= x24 <= +0
binary
general
semi
end
